c ind 10 13 15 16 25 28 39 41 43 45 0
c ind 5 50 52 54 6 80 82 9 0
p cnf 137 520
-1 -2 11 0
-1 2 81 0
-100 -35 101 0
-100 35 102 0
-101 -47 16 0
-101 47 63 0
-102 -56 103 0
-102 56 104 0
-103 -61 13 0
-103 61 63 0
-104 -63 105 0
-104 63 106 0
-105 -67 16 0
-105 67 63 0
-106 -70 107 0
-106 70 108 0
-107 -61 16 0
-107 61 63 0
-108 -75 109 0
-108 75 63 0
-109 -79 16 0
-109 79 63 0
-11 -12 14 0
-11 12 17 0
-110 -111 123 0
-110 111 124 0
-111 -22 112 0
-111 22 70 0
-112 -30 16 0
-112 30 113 0
-113 -32 114 0
-113 32 70 0
-114 -35 115 0
-114 35 116 0
-115 -47 16 0
-115 47 70 0
-116 -56 117 0
-116 56 118 0
-117 -61 16 0
-117 61 70 0
-118 -63 119 0
-118 63 120 0
-119 -67 13 0
-119 67 70 0
-12 -13 9 0
-12 -9 13 0
-120 -70 117 0
-120 70 121 0
-121 -75 122 0
-121 75 70 0
-122 -79 16 0
-122 79 70 0
-123 -13 15 0
-123 -15 13 0
-124 -125 14 0
-124 125 81 0
-125 -22 126 0
-125 22 75 0
-126 -30 16 0
-126 30 127 0
-127 -32 128 0
-127 32 75 0
-128 -35 129 0
-128 35 130 0
-129 -47 16 0
-129 47 75 0
-130 -56 131 0
-130 56 132 0
-131 -61 16 0
-131 61 75 0
-132 -63 133 0
-132 63 134 0
-133 -67 16 0
-133 67 75 0
-134 -70 135 0
-134 70 136 0
-135 -61 13 0
-135 61 75 0
-136 -75 137 0
-136 75 75 0
-137 -79 16 0
-137 79 75 0
-14 -15 16 0
-14 -16 15 0
-16 0
-17 -18 20 0
-17 18 81 0
-18 19 0
-18 3 0
-19 -13 5 0
-19 -5 13 0
-2 3 7 0
-20 -21 81 0
-20 21 83 0
-21 -22 29 0
-21 22 35 0
-22 23 26 0
-23 -24 0
-24 -25 6 0
-24 -6 25 0
-26 -27 0
-27 -10 28 0
-27 -28 10 0
-29 -30 13 0
-29 30 31 0
-3 -4 0
-30 -10 13 0
-30 -13 10 0
-31 -32 34 0
-31 32 35 0
-32 23 0
-32 33 0
-33 -13 6 0
-33 -6 13 0
-34 -35 46 0
-34 35 55 0
-35 36 0
-35 44 0
-36 37 0
-36 42 0
-37 38 0
-37 40 0
-38 -16 39 0
-38 -39 16 0
-4 -5 6 0
-4 -6 5 0
-40 -16 41 0
-40 -41 16 0
-42 -16 43 0
-42 -43 16 0
-44 -16 45 0
-44 -45 16 0
-46 -47 16 0
-46 47 35 0
-47 48 0
-47 53 0
-48 49 0
-48 51 0
-49 -13 50 0
-49 -50 13 0
-51 -13 52 0
-51 -52 13 0
-53 -13 54 0
-53 -54 13 0
-55 -56 60 0
-55 56 62 0
-56 44 0
-56 57 0
-57 42 0
-57 58 0
-58 38 0
-58 59 0
-59 -13 41 0
-59 -41 13 0
-60 -61 16 0
-60 61 35 0
-61 -16 52 0
-61 -52 16 0
-62 -63 66 0
-62 63 69 0
-63 44 0
-63 64 0
-64 37 0
-64 65 0
-65 -13 43 0
-65 -43 13 0
-66 -67 16 0
-66 67 35 0
-67 48 0
-67 68 0
-68 -16 54 0
-68 -54 16 0
-69 -70 60 0
-69 70 74 0
-7 -8 0
-70 44 0
-70 71 0
-71 42 0
-71 72 0
-72 59 0
-72 73 0
-73 -13 39 0
-73 -39 13 0
-74 -75 78 0
-74 75 35 0
-75 44 0
-75 76 0
-76 42 0
-76 77 0
-77 40 0
-77 73 0
-78 -79 13 0
-78 79 35 0
-79 -13 80 0
-79 -80 13 0
-8 -10 9 0
-8 -9 10 0
-81 -15 82 0
-81 -82 15 0
-83 -84 81 0
-83 84 96 0
-84 -22 85 0
-84 22 56 0
-85 -30 16 0
-85 30 86 0
-86 -32 87 0
-86 32 56 0
-87 -35 88 0
-87 35 89 0
-88 -47 13 0
-88 47 56 0
-89 -56 90 0
-89 56 91 0
-90 -61 16 0
-90 61 56 0
-91 -63 92 0
-91 63 93 0
-92 -67 16 0
-92 67 56 0
-93 -70 90 0
-93 70 94 0
-94 -75 95 0
-94 75 56 0
-95 -79 16 0
-95 79 56 0
-96 -97 81 0
-96 97 110 0
-97 -22 98 0
-97 22 63 0
-98 -30 16 0
-98 30 99 0
-99 -32 100 0
-99 32 63 0
1 -11 -81 0
1 -2 -11 0
1 0
1 2 -81 0
100 -101 -102 0
100 -35 -101 0
100 35 -102 0
101 -16 -63 0
101 -47 -16 0
101 47 -63 0
102 -103 -104 0
102 -56 -103 0
102 56 -104 0
103 -13 -63 0
103 -61 -13 0
103 61 -63 0
104 -105 -106 0
104 -63 -105 0
104 63 -106 0
105 -16 -63 0
105 -67 -16 0
105 67 -63 0
106 -107 -108 0
106 -70 -107 0
106 70 -108 0
107 -16 -63 0
107 -61 -16 0
107 61 -63 0
108 -109 -63 0
108 -75 -109 0
108 75 -63 0
109 -16 -63 0
109 -79 -16 0
109 79 -63 0
11 -12 -14 0
11 -14 -17 0
11 12 -17 0
110 -111 -123 0
110 -123 -124 0
110 111 -124 0
111 -112 -70 0
111 -22 -112 0
111 22 -70 0
112 -16 -113 0
112 -30 -16 0
112 30 -113 0
113 -114 -70 0
113 -32 -114 0
113 32 -70 0
114 -115 -116 0
114 -35 -115 0
114 35 -116 0
115 -16 -70 0
115 -47 -16 0
115 47 -70 0
116 -117 -118 0
116 -56 -117 0
116 56 -118 0
117 -16 -70 0
117 -61 -16 0
117 61 -70 0
118 -119 -120 0
118 -63 -119 0
118 63 -120 0
119 -13 -70 0
119 -67 -13 0
119 67 -70 0
12 -9 -13 0
12 9 13 0
120 -117 -121 0
120 -70 -117 0
120 70 -121 0
121 -122 -70 0
121 -75 -122 0
121 75 -70 0
122 -16 -70 0
122 -79 -16 0
122 79 -70 0
123 -15 -13 0
123 15 13 0
124 -125 -14 0
124 -14 -81 0
124 125 -81 0
125 -126 -75 0
125 -22 -126 0
125 22 -75 0
126 -16 -127 0
126 -30 -16 0
126 30 -127 0
127 -128 -75 0
127 -32 -128 0
127 32 -75 0
128 -129 -130 0
128 -35 -129 0
128 35 -130 0
129 -16 -75 0
129 -47 -16 0
129 47 -75 0
13 0
130 -131 -132 0
130 -56 -131 0
130 56 -132 0
131 -16 -75 0
131 -61 -16 0
131 61 -75 0
132 -133 -134 0
132 -63 -133 0
132 63 -134 0
133 -16 -75 0
133 -67 -16 0
133 67 -75 0
134 -135 -136 0
134 -70 -135 0
134 70 -136 0
135 -13 -75 0
135 -61 -13 0
135 61 -75 0
136 -137 -75 0
136 -75 -137 0
136 75 -75 0
137 -16 -75 0
137 -79 -16 0
137 79 -75 0
14 -15 -16 0
14 15 16 0
17 -18 -20 0
17 -20 -81 0
17 18 -81 0
18 -3 -19 0
19 -5 -13 0
19 5 13 0
2 -3 0
2 -7 0
20 -21 -81 0
20 -81 -83 0
20 21 -83 0
21 -22 -29 0
21 -29 -35 0
21 22 -35 0
22 -23 0
22 -26 0
23 24 0
24 -6 -25 0
24 6 25 0
26 27 0
27 -10 -28 0
27 10 28 0
29 -13 -31 0
29 -30 -13 0
29 30 -31 0
3 4 0
30 -10 -13 0
30 10 13 0
31 -32 -34 0
31 -34 -35 0
31 32 -35 0
32 -23 -33 0
33 -6 -13 0
33 6 13 0
34 -35 -46 0
34 -46 -55 0
34 35 -55 0
35 -36 -44 0
36 -37 -42 0
37 -38 -40 0
38 -39 -16 0
38 39 16 0
4 -5 -6 0
4 5 6 0
40 -41 -16 0
40 41 16 0
42 -43 -16 0
42 43 16 0
44 -45 -16 0
44 45 16 0
46 -16 -35 0
46 -47 -16 0
46 47 -35 0
47 -48 -53 0
48 -49 -51 0
49 -50 -13 0
49 50 13 0
51 -52 -13 0
51 52 13 0
53 -54 -13 0
53 54 13 0
55 -56 -60 0
55 -60 -62 0
55 56 -62 0
56 -57 -44 0
57 -58 -42 0
58 -38 -59 0
59 -41 -13 0
59 41 13 0
60 -16 -35 0
60 -61 -16 0
60 61 -35 0
61 -52 -16 0
61 52 16 0
62 -63 -66 0
62 -66 -69 0
62 63 -69 0
63 -64 -44 0
64 -37 -65 0
65 -43 -13 0
65 43 13 0
66 -16 -35 0
66 -67 -16 0
66 67 -35 0
67 -48 -68 0
68 -54 -16 0
68 54 16 0
69 -60 -74 0
69 -70 -60 0
69 70 -74 0
7 8 0
70 -71 -44 0
71 -72 -42 0
72 -73 -59 0
73 -39 -13 0
73 39 13 0
74 -75 -78 0
74 -78 -35 0
74 75 -35 0
75 -76 -44 0
76 -77 -42 0
77 -73 -40 0
78 -13 -35 0
78 -79 -13 0
78 79 -35 0
79 -80 -13 0
79 80 13 0
8 -9 -10 0
8 9 10 0
81 -15 -82 0
81 15 82 0
83 -81 -96 0
83 -84 -81 0
83 84 -96 0
84 -22 -85 0
84 -85 -56 0
84 22 -56 0
85 -16 -86 0
85 -30 -16 0
85 30 -86 0
86 -32 -87 0
86 -87 -56 0
86 32 -56 0
87 -35 -88 0
87 -88 -89 0
87 35 -89 0
88 -13 -56 0
88 -47 -13 0
88 47 -56 0
89 -56 -90 0
89 -90 -91 0
89 56 -91 0
90 -16 -56 0
90 -61 -16 0
90 61 -56 0
91 -63 -92 0
91 -92 -93 0
91 63 -93 0
92 -16 -56 0
92 -67 -16 0
92 67 -56 0
93 -70 -90 0
93 -90 -94 0
93 70 -94 0
94 -75 -95 0
94 -95 -56 0
94 75 -56 0
95 -16 -56 0
95 -79 -16 0
95 79 -56 0
96 -81 -110 0
96 -97 -81 0
96 97 -110 0
97 -22 -98 0
97 -98 -63 0
97 22 -63 0
98 -16 -99 0
98 -30 -16 0
98 30 -99 0
99 -100 -63 0
99 -32 -100 0
99 32 -63 0
